15
1 0 3
2 0 90
2 1 8
3 0 94
3 1 70
3 2 41
4 0 89
4 1 56
4 2 20
4 3 57
5 0 57
5 1 94
5 2 88
5 3 21
5 4 39
6 0 89
6 1 93
6 2 16
6 3 24
6 4 70
6 5 11
7 0 71
7 1 6
7 2 62
7 3 72
7 4 67
7 5 95
7 6 72
8 0 71
8 1 99
8 2 59
8 3 78
8 4 66
8 5 6
8 6 6
8 7 2
9 0 8
9 1 43
9 2 39
9 3 79
9 4 3
9 5 38
9 6 36
9 7 69
9 8 33
10 0 59
10 1 37
10 2 51
10 3 59
10 4 98
10 5 40
10 6 14
10 7 96
10 8 33
10 9 39
11 0 29
11 1 27
11 2 30
11 3 62
11 4 58
11 5 4
11 6 92
11 7 81
11 8 48
11 9 49
11 10 77
12 0 4
12 1 12
12 2 44
12 3 35
12 4 80
12 5 86
12 6 88
12 7 28
12 8 69
12 9 21
12 10 53
12 11 53
13 0 63
13 1 58
13 2 67
13 3 67
13 4 51
13 5 71
13 6 99
13 7 82
13 8 75
13 9 3
13 10 40
13 11 91
13 12 13
14 0 13
14 1 98
14 2 37
14 3 91
14 4 14
14 5 39
14 6 30
14 7 5
14 8 69
14 9 54
14 10 82
14 11 3
14 12 72
14 13 45
